NAME: tsp25_3
COMMENT: 25-tsp problem (Padberg/Rinaldi)
TYPE: TSP
DIMENSION: 25
EDGE_WEIGHT_TYPE : EUC_2D
NODE_COORD_SECTION
1 14 6
2 11 5
3 1 26
4 11 21
5 3 35
6 38 36
7 10 19
8 12 9
9 37 16
10 3 18
11 32 6
12 19 17
13 22 24
14 39 37
15 22 31
16 0 20
17 10 10
18 30 29
19 3 3
20 14 16
21 27 18
22 26 33
23 27 5
24 1 35
25 20 35
